SCIP Status        : solving was interrupted [time limit reached]
Total Time         :    3600.01
  solving          :    3600.00
  presolving       :       0.45 (included in solving)
  reading          :       0.01
  copying          :       1.73 (36 #copies) (minimal 0.01, maximal 0.14, average 0.05)
Original Problem   :
  Problem name     : bbbenchmark/pw05_100.6.cut
  Variables        : 101 (100 binary, 0 integer, 0 implicit integer, 1 continuous)
  Constraints      : 1 initial, 1 maximal
  Objective        : minimize, 1 non-zeros (abs.min = 1, abs.max = 1)
Presolved Problem  :
  Problem name     : t_bbbenchmark/pw05_100.6.cut
  Variables        : 1956 (100 binary, 0 integer, 1843 implicit integer, 13 continuous)
  Constraints      : 1880 initial, 11342 maximal
  Objective        : minimize, 1 non-zeros (abs.min = 1, abs.max = 1)
  Nonzeros         : 8809 constraint, 202 clique table
Presolvers         :   ExecTime  SetupTime  Calls  FixedVars   AggrVars   ChgTypes  ChgBounds   AddHoles    DelCons    AddCons   ChgSides   ChgCoefs
  boundshift       :       0.00       0.00      0          0          0          0          0          0          0          0          0          0
  convertinttobin  :       0.00       0.00      0          0          0          0          0          0          0          0          0          0
  domcol           :       0.00       0.00      1          0          0          0          0          0          0          0          0          0
  dualagg          :       0.00       0.00      0          0          0          0          0          0          0          0          0          0
  dualcomp         :       0.00       0.00      1          0          0          0          0          0          0          0          0          0
  dualinfer        :       0.00       0.00      0          0          0          0          0          0          0          0          0          0
  dualsparsify     :       0.00       0.00      1          0          0          0          0          0          0          0          0          0
  gateextraction   :       0.00       0.00      0          0          0          0          0          0          0          0          0          0
  implics          :       0.00       0.00      2          0          0          0          0          0          0          0          0          0
  inttobinary      :       0.00       0.00      0          0          0          0          0          0          0          0          0          0
  qpkktref         :       0.00       0.00      0          0          0          0          0          0          0          0          0          0
  redvub           :       0.00       0.00      0          0          0          0          0          0          0          0          0          0
  sparsify         :       0.00       0.00      1          0          0          0          0          0          0          0          0          0
  stuffing         :       0.00       0.00      0          0          0          0          0          0          0          0          0          0
  trivial          :       0.00       0.00      4          0          0          0          0          0          0          0          0          0
  tworowbnd        :       0.00       0.00      0          0          0          0          0          0          0          0          0          0
  dualfix          :       0.00       0.00      4          0          0          0          0          0          0          0          0          0
  genvbounds       :       0.00       0.00      0          0          0          0          0          0          0          0          0          0
  probing          :       0.31       0.00      1          0          0          0          0          0          0          0          0          0
  pseudoobj        :       0.00       0.00      1          0          0          0          1          0          0          0          0          0
  symmetry         :       0.00       0.00      0          0          0          0          0          0          0          0          0          0
  vbounds          :       0.00       0.00      1          0          0          0          0          0          0          0          0          0
  varbound         :       0.00       0.00      2          0          0          0          0          0          0          0          0          0
  and              :       0.01       0.01      2          0          0          0          0          0          0          0          0          0
  linear           :       0.00       0.00      2          0          0          0          0          0          0          0          0          0
  logicor          :       0.00       0.00      0          0          0          0          0          0          0          0          0          0
  bounddisjunction :       0.00       0.00      0          0          0          0          0          0          0          0          0          0
  nonlinear        :       0.12       0.00      5          0          0          0          1          0          0       1879          0          0
  benders          :       0.00       0.00      0          0          0          0          0          0          0          0          0          0
  components       :       0.00       0.00      1          0          0          0          0          0          0          0          0          0
  root node        :          -          -      -          0          -          -         12          -          -          -          -          -
Constraints        :     Number  MaxNumber  #Separate #Propagate    #EnfoLP    #EnfoRelax  #EnfoPS    #Check   #ResProp    Cutoffs    DomReds       Cuts    Applied      Conss   Children
  benderslp        :          0          0          0          0      42035          0          0       8516          0          0          0          0          0          0          0
  integral         :          0          0          0          0      42035          0          0       8516          0          0        865          0          0        555      83194
  varbound         :         12         12         44     355156          0          0          0        147          0          0      25465          0          0          0          0
  and              :       1843       1843      56987     418945          5          0          0        147     347498          1     543176       9036       7709          0          0
  linear           :         25+        29         44     418974          5          0          0        145        163          1     121022          0          0          0          0
  logicor          :          0+      9400          0      66839          0          0          0          0        118        227         44          0          0          0          0
  bounddisjunction :          0+       158          0      19685          0          0          0          0          1          5          1          0          0          0          0
  benders          :          0          0          0          0          5          0          0         49          0          0          0          0          0          0          0
  countsols        :          0          0          0          0          5          0          0         49          0          0          0          0          0          0          0
  components       :          0          0          0          0          0          0          0          0          0          0          0          0          0          0          0
Constraint Timings :  TotalTime  SetupTime   Separate  Propagate     EnfoLP     EnfoPS     EnfoRelax   Check    ResProp    SB-Prop
  benderslp        :       0.02       0.00       0.00       0.00       0.02       0.00       0.00       0.00       0.00       0.00
  integral         :      58.59       0.00       0.00       0.00      58.59       0.00       0.00       0.00       0.00       0.00
  varbound         :       0.48       0.00       0.00       0.48       0.00       0.00       0.00       0.00       0.00       0.00
  and              :      61.80       0.01      39.38      21.24       0.00       0.00       0.00       0.11       0.27       0.79
  linear           :       2.12       0.00       0.02       2.05       0.00       0.00       0.00       0.00       0.00       0.05
  logicor          :       6.84       0.00       0.00       6.81       0.00       0.00       0.00       0.00       0.00       0.03
  bounddisjunction :       0.20       0.00       0.00       0.20       0.00       0.00       0.00       0.00       0.00       0.00
  benders          :       0.00       0.00       0.00       0.00       0.00       0.00       0.00       0.00       0.00       0.00
  countsols        :       0.00       0.00       0.00       0.00       0.00       0.00       0.00       0.00       0.00       0.00
  components       :       0.07       0.00       0.00       0.07       0.00       0.00       0.00       0.00       0.00       0.00
Propagators        : #Propagate   #ResProp    Cutoffs    DomReds
  dualfix          :          4          0          0          0
  genvbounds       :          0          0          0          0
  nlobbt           :          0          0          0          0
  obbt             :          0          0          0          0
  probing          :          0          0          0          0
  pseudoobj        :     182568          0          0         59
  redcost          :     107492          0          0      45355
  rootredcost      :         13          0          0          0
  symmetry         :          0          0          0          0
  vbounds          :      52028          0          0          0
Propagator Timings :  TotalTime  SetupTime   Presolve  Propagate    ResProp    SB-Prop
  dualfix          :       0.01       0.00       0.00       0.01       0.00       0.00
  genvbounds       :       0.26       0.00       0.00       0.25       0.00       0.01
  nlobbt           :       0.00       0.00       0.00       0.00       0.00       0.00
  obbt             :       0.00       0.00       0.00       0.00       0.00       0.00
  probing          :       0.31       0.00       0.31       0.00       0.00       0.00
  pseudoobj        :       0.40       0.00       0.00       0.40       0.00       0.00
  redcost          :       9.05       0.00       0.00       9.04       0.00       0.01
  rootredcost      :       0.41       0.00       0.00       0.40       0.00       0.01
  symmetry         :       0.17       0.00       0.00       0.17       0.00       0.00
  vbounds          :       0.35       0.00       0.00       0.34       0.00       0.01
Conflict Analysis  :       Time      Calls    Success    DomReds  Conflicts   Literals    Reconvs ReconvLits   Dualrays   Nonzeros   LP Iters   (pool size: [10000,10000])
  propagation      :       0.00        233        163          -        189       59.0          0        0.0          -          -          -
  infeasible LP    :       0.00          6          6          -        262      151.4          0        0.0         12      172.7          0
  bound exceed. LP :      18.36       3916       3618          -      97668      110.6          1       55.0          0        0.0      43422
  strong branching :       0.00          0          0          -          0        0.0          0        0.0          -          -          0
  pseudo solution  :       0.00          0          0          -          0        0.0          0        0.0          -          -          -
  applied globally :       0.43          -          -          0      20388      127.4          -          -         12          -          -
  applied locally  :          -          -          -          0          0        0.0          -          -          0          -          -
Separators         :   ExecTime  SetupTime      Calls  RootCalls    Cutoffs    DomReds  FoundCuts ViaPoolAdd  DirectAdd    Applied ViaPoolApp  DirectApp      Conss
  cut pool         :      10.98          -      26270         66          -          -      43129    2929742          -          -          -          -          -    (maximal pool size:       3886)
  aggregation      :     467.11       0.00       9075         44          0          0       1150       1832          0        596        596          0          0
  > cmir           :          -          -          -          -          -          -          -       1665          0        552        552          0          -
  > flowcover      :          -          -          -          -          -          -          -        167          0         44         44          0          -
  > knapsackcover  :          -          -          -          -          -          -          -          0          0          0          0          0          -
  cgmip            :       0.00       0.00          0          0          0          0          0          0          0          0          0          0          0
  clique           :       0.00       0.00         44         44          0          0          0          0          0          0          0          0          0
  closecuts        :       0.00       0.00          0          0          0          0          0          0          0          0          0          0          0
  convexproj       :       0.00       0.00          0          0          0          0          0          0          0          0          0          0          0
  disjunctive      :       0.00       0.00          0          0          0          0          0          0          0          0          0          0          0
  eccuts           :       0.00       0.00          0          0          0          0          0          0          0          0          0          0          0
  gauge            :       0.00       0.00          0          0          0          0          0          0          0          0          0          0          0
  gomory           :       0.00       0.00          0          0          0          0          0          0          0          0          0          0          0
  > gomorymi       :          -          -          -          -          -          -          -          0          0          0          0          0          -
  > strongcg       :          -          -          -          -          -          -          -          0          0          0          0          0          -
  impliedbounds    :       0.70       0.00       9075         44          0          0         81         11          0          3          3          0          0
  interlattice     :       0.00       0.00          0          0          0          0          0          0          0          0          0          0          0
  interminor       :       0.00       0.00          0          0          0          0          0          0          0          0          0          0          0
  intersub         :       0.45       0.00         20         20          0          0         18          0         18         18          0         18          0
  intobj           :       0.00       0.00          0          0          0          0          0          0          0          0          0          0          0
  mcf              :       0.00       0.00          1          1          0          0          0          0          0          0          0          0          0
  minor            :       0.03       0.00          0          0          0          0          0          0          0          0          0          0          0
  mixing           :       0.03       0.00       9075         44          0          0          0          0          0          0          0          0          0
  oddcycle         :       0.00       0.00          0          0          0          0          0          0          0          0          0          0          0
  rapidlearning    :       0.01       0.00          0          0          0          0          0          0          0          0          0          0          0
  rlt              :       0.00       0.00         10         10          0          0          0          0          0          0          0          0          0
  zerohalf         :      98.03       0.00       8141         20          0          0      41898    2927899          0     180694     180694          0          0
Cutselectors       :   ExecTime  SetupTime      Calls  RootCalls   Selected     Forced   Filtered  RootSelec   RootForc   RootFilt 
  hybrid           :       3.37       0.00      17180         42     189020          0    2749776        206          0         60
Pricers            :   ExecTime  SetupTime      Calls       Vars
  problem variables:       0.00          -          0          0
Branching Rules    :   ExecTime  SetupTime   BranchLP  BranchExt   BranchPS    Cutoffs    DomReds       Cuts      Conss   Children
  allfullstrong    :       0.00       0.00          0          0          0          0          0          0          0          0
  cloud            :       0.00       0.00          0          0          0          0          0          0          0          0
  distribution     :       0.00       0.00          0          0          0          0          0          0          0          0
  fullstrong       :       0.00       0.00          0          0          0          0          0          0          0          0
  inference        :       0.00       0.00          0          0          0          0          0          0          0          0
  leastinf         :       0.00       0.00          0          0          0          0          0          0          0          0
  lookahead        :       0.00       0.00          0          0          0          0          0          0          0          0
  mostinf          :       0.00       0.00          0          0          0          0          0          0          0          0
  multaggr         :       0.00       0.00          0          0          0          0          0          0          0          0
  nodereopt        :       0.00       0.00          0          0          0          0          0          0          0          0
  pscost           :       0.00       0.00          0          0          0          0          0          0          0          0
  random           :       0.00       0.00          0          0          0          0          0          0          0          0
  relpscost        :      58.41       0.00      42030          0          0          0        865          0        557      83194
  vanillafullstrong:       0.00       0.00          0          0          0          0          0          0          0          0
Primal Heuristics  :   ExecTime  SetupTime      Calls      Found       Best
  LP solutions     :       0.01          -          -          5          5
  relax solutions  :       0.00          -          -          0          0
  pseudo solutions :       0.00          -          -          0          0
  strong branching :       0.02          -          -          0          0
  actconsdiving    :       0.00       0.00          0          0          0
  adaptivediving   :       4.53       0.00         27          0          0
  alns             :       3.43       0.00         17          7          6
  bound            :       0.00       0.00          0          0          0
  clique           :       0.01       0.00          1          0          0
  coefdiving       :       0.00       0.00          0          0          0
  completesol      :       0.00       0.00          0          0          0
  conflictdiving   :      48.90       0.00        311          0          0
  crossover        :       6.17       0.00          4          1          1
  dins             :       0.00       0.00          0          0          0
  distributiondivin:      74.42       0.00        289          0          0
  dps              :       0.00       0.00          0          0          0
  dualval          :       0.00       0.00          0          0          0
  farkasdiving     :       0.00       0.00          0          0          0
  feaspump         :       0.19       0.00          1          1          1
  fixandinfer      :       0.00       0.00          0          0          0
  fracdiving       :      60.76       0.00        311          0          0
  gins             :       0.06       0.00          0          0          0
  guideddiving     :      52.67       0.00        312          0          0
  indicator        :       0.02       0.00          0          0          0
  indicatordiving  :       0.00       0.00          0          0          0
  intdiving        :       0.00       0.00          0          0          0
  intshifting      :       0.55       0.00         42          0          0
  linesearchdiving :      46.19       0.00        311          0          0
  localbranching   :       0.00       0.00          0          0          0
  locks            :       0.02       0.00          1          0          0
  lpface           :       0.09       0.00          0          0          0
  mpec             :     125.82       0.00         11          2          2
  multistart       :       0.00       0.00          0          0          0
  mutation         :       0.00       0.00          0          0          0
  nlpdiving        :      22.98       0.00          2          0          0
  objpscostdiving  :      94.77       0.00         58         23          0
  octane           :       0.00       0.00          0          0          0
  ofins            :       0.10       0.00          0          0          0
  oneopt           :       0.05       0.00         20          0          0
  padm             :       0.00       0.00          0          0          0
  proximity        :       0.00       0.00          0          0          0
  pscostdiving     :      59.65       0.00        307          1          1
  randrounding     :       0.55       0.00       8463          0          0
  rens             :       0.00       0.00          0          0          0
  reoptsols        :       0.00       0.00          0          0          0
  repair           :       0.00       0.00          0          0          0
  rins             :       1.73       0.00         14          0          0
  rootsoldiving    :      45.60       0.00         27          2          0
  rounding         :       1.41       0.00       3344          0          0
  shiftandpropagate:       0.00       0.00          0          0          0
  shifting         :      63.76       0.00      11245          6          5
  simplerounding   :       0.07       0.00          0          0          0
  subnlp           :      93.58       0.00          0          0          0
  trivial          :       0.01       0.00          2          2          2
  trivialnegation  :       0.00       0.00          0          0          0
  trustregion      :       0.00       0.00          0          0          0
  trysol           :       0.10       0.00          0          0          0
  twoopt           :       0.00       0.00          0          0          0
  undercover       :       0.46       0.00          1          1          1
  vbounds          :       0.00       0.00          0          0          0
  veclendiving     :      43.11       0.00        311          0          0
  zeroobj          :       0.00       0.00          0          0          0
  zirounding       :       0.34       0.00       1000          0          0
  other solutions  :          -          -          -          0          -
Diving (single)    :      Calls      Nodes   LP Iters Backtracks  Conflicts   MinDepth   MaxDepth   AvgDepth  RoundSols  NLeafSols  MinSolDpt  MaxSolDpt  AvgSolDpt
  actconsdiving    :          0          -          -          -          -          -          -          -          -          -          -          -          -
  coefdiving       :          0          -          -          -          -          -          -          -          -          -          -          -          -
  conflictdiving   :        311      13265     349934        326      22914         50         79       61.4          0          -          -          -          -
  distributiondivin:        289      10096     438963        328       9404         44         69       54.3          0          -          -          -          -
  farkasdiving     :          0          -          -          -          -          -          -          -          -          -          -          -          -
  fracdiving       :        311      59280     407839        124       1625         54        735      211.3          0          -          -          -          -
  guideddiving     :        312      51198     364438         24        852         52        444      184.6          0          -          -          -          -
  indicatordiving  :          0          -          -          -          -          -          -          -          -          -          -          -          -
  linesearchdiving :        311      13417     351726        330      18804         49         85       63.4          0          -          -          -          -
  pscostdiving     :        307      13443     453058        316      13435         54         79       63.4          0          1         77         77       77.0
  veclendiving     :        311      13418     312664        306      23996         53         78       63.1          0          -          -          -          -
Diving (adaptive)  :      Calls      Nodes   LP Iters Backtracks  Conflicts   MinDepth   MaxDepth   AvgDepth  RoundSols  NLeafSols  MinSolDpt  MaxSolDpt  AvgSolDpt
  actconsdiving    :          3        108       4475          3         72         50         55       52.7          0          -          -          -          -
  coefdiving       :          6        261       6926          6        452         59         62       60.3          0          -          -          -          -
  conflictdiving   :          0          -          -          -          -          -          -          -          -          -          -          -          -
  distributiondivin:          0          -          -          -          -          -          -          -          -          -          -          -          -
  farkasdiving     :          0          -          -          -          -          -          -          -          -          -          -          -          -
  fracdiving       :          2        247       2517          0          0        136        142      139.0          0          -          -          -          -
  guideddiving     :          8        996       9794          0          0         91        196      141.1          0          -          -          -          -
  indicatordiving  :          0          -          -          -          -          -          -          -          -          -          -          -          -
  linesearchdiving :          2         73       2620          2        131         52         56       54.0          0          -          -          -          -
  pscostdiving     :          2         77       2548          2         78         61         62       61.5          0          -          -          -          -
  veclendiving     :          4        181       4327          4        336         62         63       62.2          0          -          -          -          -
Neighborhoods      :      Calls  SetupTime  SolveTime SolveNodes       Sols       Best       Exp3  EpsGreedy        UCB TgtFixRate  Opt  Inf Node Stal  Sol  Usr Othr Actv
  rens             :          2       0.20       0.03          2          0          0    0.00000   -1.00000    0.54638      0.550    0    2    0    0    0    0    0    1
  rins             :          3       0.39       0.22        175          1          1    0.00000   -1.00000    0.56216      0.587    0    2    0    1    0    0    0    1
  mutation         :          3       0.19       0.26         88          2          2    0.00000   -1.00000    0.56209      0.662    1    1    0    1    0    0    0    1
  localbranching   :          1       0.05       0.01          1          0          0    0.00000   -1.00000    0.56700      0.700    0    1    0    0    0    0    0    1
  crossover        :          1       0.06       0.01          7          0          0    0.00000   -1.00000    0.56100      0.700    0    1    0    0    0    0    0    1
  proximity        :          2       0.09       0.77        536          2          1    0.00000   -1.00000    0.49680      0.850    1    0    0    1    0    0    0    1
  zeroobjective    :          2       0.19       0.06         61          0          0    0.00000   -1.00000    0.47132      0.850    0    1    0    1    0    0    0    1
  dins             :          3       0.33       0.41        457          2          2    0.00000   -1.00000    0.47395      0.812    0    1    0    2    0    0    0    1
  trustregion      :          0       0.00       0.00          0          0          0    0.00000   -1.00000    1.00000      0.900    0    0    0    0    0    0    0    0
Expressions        :   #IntEval  IntEvalTi   #RevProp  RevPropTi    DomReds    Cutoffs  #Estimate  EstimTime  Branching  #Simplify SimplifyTi Simplified
  pow              :          0       0.00          0       0.00          0          0          0       0.00          0          0       0.00          0
  prod             :       9900       0.01          0       0.00          0          0          0       0.00          0       6793       0.00          0
  sum              :          8       0.00          2       0.00          0          0          0       0.00          0          3       0.02          2
  var              :       6677       0.00          0       0.00          0          0          0       0.00          0      15744       0.00          0
  varidx           :          0       0.00          0       0.00          0          0          0       0.00          0          0       0.00          0
LP                 :       Time      Calls Iterations  Iter/call   Iter/sec  Time-0-It Calls-0-It    ItLimit
  primal LP        :     119.62       7876          0       0.00       0.00     119.58       7876
  dual LP          :    1816.05      89293    8456114     101.79    4656.32       3.43       6219
  lex dual LP      :       0.00          0          0       0.00          -
  barrier LP       :       0.00          0          0       0.00          -       0.00          0
  resolve instable :       0.00          0          0       0.00          -
  diving/probing LP:     455.71      11939    3337442     279.54    7323.61
  strong branching :      37.07       1973     249446     126.43    6729.05          -          -        453
    (at root node) :          -         19       3906     205.58          -
  conflict analysis:       8.15       4390      43422       9.89    5327.85
NLP relaxation     :
  solve time       :      22.71 (11 calls)
  convexity        :  nonconvex (37 linear rows, 0 convex ineq., 0 nonconvex ineq., 1843 nonlinear eq. or two-sided ineq.)
NLP Solvers        :  #Problems  ProblemTi    #Solves  SolveTime      #Iter  Time/Iter      #Okay #TimeLimit #IterLimit #LObjLimit #Interrupt  #NumError #EvalError  #OutOfMem #LicenseEr #OtherTerm   #GlobOpt    #LocOpt  #Feasible #LocInfeas #GlobInfea #Unbounded   #Unknown
  ipopt            :         12       3.63         33     154.34       1664       0.09         31          0          2          0          0          0          0          0          0          0          0         17          0         13          0          0          3
B&B Tree           :
  number of runs   :          1
  nodes            :      65500 (41597 internal, 23903 leaves)
  feasible leaves  :          5
  infeas. leaves   :          5
  objective leaves :      23892
  nodes (total)    :      65500 (41597 internal, 23903 leaves)
  nodes left       :      17427
  max depth        :         61
  max depth (total):         61
  backtracks       :      14783 (22.6%)
  early backtracks :          0 (0.0%)
  nodes exc. ref.  :          0 (0.0%)
  delayed cutoffs  :          2
  repropagations   :         83 (247 domain reductions, 0 cutoffs)
  avg switch length:       5.92
  switching time   :     137.29
Estim. Tree Size   :     131536
Estimation Tree    : 83195 nodes (65768 visited, 41597 internal, 24171 leaves, 17427 open), weight: 0.0000 completed 0.1147
Estimations        :      estim      value      trend resolution     smooth
  wbe              : 25458746104394          -          -          -          -
  tree-profile     :         -1          -          -          -          -
  gap              :     707655    0.68096    0.00003         32     693437
  tree-weight      :     131536    0.00000    0.00000         32     131327
  leaf-frequency   :     131536    0.36751   -0.00005         32     167475
  ssg              :     649436    0.81895   -0.00009         32     637401
  open-nodes       :     131536 17427.00000   60.17957         32     131327
Root Node          :
  First LP value   : -5.58505050505052e+00
  First LP Iters   :       1626 (10162.50 Iter/sec)
  First LP Time    :       0.16
  Final Dual Bound : -5.35796836462046e+00
  Final Root Iters :       2840
  Root LP Estimate : -1.95295526415824e+00
Solution           :
  Solutions found  :         51 (24 improvements)
  First Solution   : +1.00000000000000e+05   (in run 1, after 0 nodes, 0.04 seconds, depth 0, found by <trivial>)
  Gap First Sol.   :   infinite
  Gap Last Sol.    :      47.23 %
  Primal Bound     : -3.21414141414141e+00   (in run 1, after 59068 nodes, 3056.83 seconds, depth 20, found by <alns>)
  Dual Bound       : -4.72004835988585e+00
  Gap              :      46.85 %
Integrals          :      Total       Avg%
  primal-dual      :  124552.13      34.60
  primal-ref       :          -          - (not evaluated)
  dual-ref         :          -          - (not evaluated)
